
Gurobi 13.0.2 (win64) logging started Fri Jul 24 06:12:18 2026

Set parameter LogFile to value "E:\codes\ExactEBRP\results\gf_c0_mechanism_transfer_c5_round30\runs\stage1__high_imbalance_seed3202__c4_candidate__300s\external\native_logs\L2.0.0.1.0.1.0.1.0_terminal_mip.gurobi.log"
Gurobi Optimizer version 13.0.2 build v13.0.2rc1 (win64 - Windows 10.0 (19045.2))

CPU model: 12th Gen Intel(R) Core(TM) i7-12700KF, instruction set [SSE2|AVX|AVX2]
Thread count: 12 physical cores, 20 logical processors, using up to 1 threads

Non-default parameters:
TimeLimit  4.3969642300000004e+01
MIPGap  0
MIPGapAbs  0
LogToConsole  0
Threads  1

Optimize a model with 11895 rows, 3372 columns and 67322 nonzeros (Min)
Model fingerprint: 0x3b321f53
Model has 21 linear objective coefficients
Variable types: 1683 continuous, 1689 integer (1489 binary)
Coefficient statistics:
  Matrix range     [1e-02, 2e+04]
  Objective range  [1e-02, 1e+00]
  Bounds range     [5e-01, 2e+03]
  RHS range        [5e-01, 5e+04]

Presolve removed 2401 rows and 94 columns
Presolve time: 0.19s
Presolved: 9494 rows, 3278 columns, 58007 nonzeros
Variable types: 1627 continuous, 1651 integer (1466 binary)

Root relaxation: objective 1.612486e+00, 3307 iterations, 0.16 seconds (0.39 work units)

    Nodes    |    Current Node    |     Objective Bounds      |     Work
 Expl Unexpl |  Obj  Depth IntInf | Incumbent    BestBd   Gap | It/Node Time

     0     0    1.61249    0  210          -    1.61249      -     -    0s
     0     0    1.65102    0  273          -    1.65102      -     -    0s
     0     0    1.67807    0  278          -    1.67807      -     -    1s
     0     0    1.67893    0  265          -    1.67893      -     -    1s
     0     0    1.69103    0  302          -    1.69103      -     -    1s
     0     0    1.69422    0  314          -    1.69422      -     -    1s
     0     0    1.70319    0  318          -    1.70319      -     -    2s
     0     0    1.70484    0  363          -    1.70484      -     -    2s
     0     0    1.71222    0  370          -    1.71222      -     -    2s
     0     0    1.71287    0  375          -    1.71287      -     -    3s
     0     0    1.71515    0  360          -    1.71515      -     -    3s
     0     0    1.71581    0  352          -    1.71581      -     -    3s
     0     0    1.71802    0  336          -    1.71802      -     -    3s
     0     0    1.71864    0  364          -    1.71864      -     -    4s
     0     0    1.71976    0  351          -    1.71976      -     -    4s
     0     0    1.72018    0  380          -    1.72018      -     -    4s
     0     0    1.72102    0  323          -    1.72102      -     -    5s
     0     0    1.72123    0  352          -    1.72123      -     -    5s
     0     0    1.72230    0  325          -    1.72230      -     -    5s
     0     0    1.72239    0  345          -    1.72239      -     -    5s
     0     0    1.72261    0  364          -    1.72261      -     -    5s
     0     0    1.72325    0  334          -    1.72325      -     -    6s
     0     0    1.72345    0  340          -    1.72345      -     -    6s
     0     0    1.72351    0  341          -    1.72351      -     -    6s
     0     0    1.72370    0  312          -    1.72370      -     -    7s
     0     0    1.72377    0  328          -    1.72377      -     -    7s
     0     0    1.72378    0  342          -    1.72378      -     -    7s
     0     0    1.72379    0  346          -    1.72379      -     -    7s
     0     0    1.72382    0  340          -    1.72382      -     -    8s
     0     0    1.72382    0  339          -    1.72382      -     -    8s
     0     0    1.72382    0  331          -    1.72382      -     -    8s
     0     2    1.72383    0  331          -    1.72383      -     -    9s
     7     3 infeasible    5               -    1.72623      -   798   10s
    27    17 infeasible   17               -    1.72931      -   944   15s
    84    60    1.74036   27  263          -    1.73384      -   518   20s
   255   163 infeasible   15               -    1.73753      -   275   25s
   493   327 infeasible   17               -    1.73957      -   211   30s

Cutting planes:
  Learned: 16
  Cover: 46
  Implied bound: 98
  Clique: 3
  MIR: 124
  StrongCG: 4
  Flow cover: 65
  Zero half: 2
  Network: 20
  RLT: 7
  Relax-and-lift: 49
  BQP: 4

Explored 827 nodes (172023 simplex iterations) in 34.48 seconds (74.68 work units)
Thread count was 1 (of 20 available processors)

Solution count 0

Model is infeasible
Best objective -, best bound -, gap -

User-callback calls 8539, time in user-callback 0.01 sec
